c FILE /home/rafael/Documents/HappySet/MIHS/inputs/happygen/output/graph_d_regular_k5_p0.3_v50_20241127_082632.txt
c SOURCE This is a d-regular graph formed for the happy graph colouring problem.
c DESCRIPTION It was generated using the problem generator of Rhyd Lewis
c
c GRAPH STATS
c Seed                             = -1418302578
c Number of Nodes                  = 50
c Number of colours k              = 5
c Number of pre-assignments        = 15
c Degree of all vertices           = 6
c Density                          = 0.122449
c 
c The degrees of nodes 1 to 50, respectively, are as follows 
c [6, 6, 6, 6, 6, 6, 6, 6, 6, 6, 6, 6, 6, 6, 6, 6, 6, 6, 6, 6, 6, 6, 6, 6, 6, 6, 
c  6, 6, 6, 6, 6, 6, 6, 6, 6, 6, 6, 6, 6, 6, 6, 6, 6, 6, 6, 6, 6, 6, 6, 6] 
c  
p edge 50 150 5
e 1 3
e 1 10
e 1 14
e 1 20
e 1 29
e 1 48
e 2 3
e 2 8
e 2 20
e 2 34
e 2 41
e 2 47
e 3 6
e 3 23
e 3 31
e 3 42
e 4 13
e 4 21
e 4 22
e 4 26
e 4 27
e 4 29
e 5 8
e 5 9
e 5 11
e 5 17
e 5 33
e 5 38
e 6 22
e 6 28
e 6 29
e 6 42
e 6 46
e 7 12
e 7 21
e 7 25
e 7 31
e 7 42
e 7 46
e 8 29
e 8 33
e 8 37
e 8 50
e 9 18
e 9 30
e 9 34
e 9 39
e 9 47
e 10 24
e 10 39
e 10 40
e 10 43
e 10 49
e 11 12
e 11 14
e 11 19
e 11 35
e 11 39
e 12 20
e 12 32
e 12 34
e 12 48
e 13 16
e 13 36
e 13 39
e 13 44
e 13 45
e 14 23
e 14 35
e 14 38
e 14 43
e 15 24
e 15 27
e 15 33
e 15 36
e 15 41
e 15 44
e 16 23
e 16 25
e 16 34
e 16 43
e 16 45
e 17 24
e 17 25
e 17 41
e 17 43
e 17 48
e 18 19
e 18 27
e 18 33
e 18 44
e 18 48
e 19 24
e 19 25
e 19 29
e 19 45
e 20 22
e 20 36
e 20 42
e 21 31
e 21 33
e 21 45
e 21 46
e 22 35
e 22 40
e 22 49
e 23 37
e 23 41
e 23 50
e 24 32
e 24 41
e 25 43
e 25 44
e 26 31
e 26 35
e 26 38
e 26 40
e 26 50
e 27 36
e 27 43
e 27 49
e 28 30
e 28 31
e 28 35
e 28 36
e 28 49
e 29 38
e 30 31
e 30 39
e 30 40
e 30 48
e 32 37
e 32 39
e 32 44
e 32 49
e 33 40
e 34 37
e 34 44
e 35 47
e 36 50
e 37 45
e 37 50
e 38 41
e 38 42
e 40 49
e 42 46
e 45 47
e 46 47
e 46 48
e 47 50
n 2 4
n 4 2
n 14 3
n 15 4
n 16 5
n 17 1
n 19 5
n 20 4
n 30 1
n 31 1
n 36 4
n 38 3
n 39 1
n 40 1
n 49 1
